1	5	1	1	5	10	0	0	0	0	0	0
800	1	0	0	0	0	0	0	0	0	0	0
100	1	0	85.75	0.39	1	0	0	0	0	0	0
100	1	0	85.75	0.39	1	0	0	0	0	0	0
100	1	0	85.75	0.39	1	0	0	0	0	0	0
100	1	0	85.75	0.39	1	0	0	0	0	0	0
100     1       0       85.75   0.39    1       0       0       0       0       0       0
50	150	0	0	0	0	240	0	0	99999	0	0
50	75	0	0	0	0	240	0	0	99999	0	0
50	75	0	0	0	0	240	0	0	0	0	0
77	52	0	0	0	0	240	0	0	0	0	0
39	26	0	0	0	0	240	0	0	0	0	0
77	30	0	0	0	0	240	0	0	0	0	0
40      50      0       0       0       0       240     0       0       0       0       0
35	69	23	12	11	184	214	10	0	0	0	0
30	25	23	19	4	128	158	10	0	0	0	0
42	12	10	3	7	186	216	10	0	0	0	0
20	82	10	2	8	154	184	10	0	0	0	0
55	60	16	15	1	271	301	10	0	0	0	0
53	43	14	11	3	241	271	10	0	0	0	0
95	30	30	9	21	222	252	10	0	0	0	0
8	40	40	8	32	187	217	10	0	0	0	0
20	50	5	2	3	101	311	10	0	0	0	0
55	82	10	7	3	137	167	10	0	0	0	0
